============================[ Problem Statistics ]=============================|                                                                             ||  Number of variables:          4242                                         ||  Number of clauses:            9721                                         ||  Parse time:                   0.12 s                                       ||                                                                             |============================[ Search Statistics ]==============================| Conflicts |          ORIGINAL         |          LEARNT          | Progress ||           |    Vars  Clauses Literals |    Limit  Clauses Lit/Cl |          |==============================================================================================================================================================restarts              : 1conflicts             : 76             (384 /sec)decisions             : 163            (0.00 % random) (823 /sec)propagations          : 8196           (41394 /sec)conflict literals     : 3794           (95.96 % deleted)CPU time              : 0.198 sSATISFIABLE